-1 18 97 7 54 80 55 100 73 94 73 5 31 36 
18 -1 57 6 11 49 73 60 64 59 82 73 50 100 
97 57 -1 4 89 37 96 53 86 20 7 82 7 16 
7 6 4 -1 57 80 81 33 21 32 14 74 61 70 
54 11 89 57 -1 35 40 71 8 43 42 62 30 72 
80 49 37 80 35 -1 78 53 88 56 37 39 71 86 
55 73 96 81 40 78 -1 65 61 25 43 17 2 72 
100 60 53 33 71 53 65 -1 27 78 36 6 24 26 
73 64 86 21 8 88 61 27 -1 25 70 8 9 6 
94 59 20 32 43 56 25 78 25 -1 43 75 27 38 
73 82 7 14 42 37 43 36 70 43 -1 83 21 11 
5 73 82 74 62 39 17 6 8 75 83 -1 100 7 
31 50 7 61 30 71 2 24 9 27 21 100 -1 68 
36 100 16 70 72 86 72 26 6 38 11 7 68 -1 
